p cnf 26 66
a 17 6 0
e 1 2 3 4 5 7 8 9 10 11 12 13 14 15 16 18 19 20 21 22 23 24 25 26 0
-1 2 -3 0
1 -2 -3 0
-1 -2 3 0
1 2 3 0
4 5 -6 0
-4 -5 -6 0
4 -5 6 0
-4 5 6 0
-6 1 -7 0
6 -1 -7 0
-6 -1 7 0
6 1 7 0
-8 -5 0
-8 6 0
5 -6 8 0
9 -7 0
9 8 0
7 -8 -9 0
10 -3 0
10 -9 0
3 9 -10 0
12 -1 0
12 11 0
1 -11 -12 0
-10 12 -13 0
10 -12 -13 0
-10 -12 13 0
10 12 13 0
15 4 0
15 -14 0
-4 14 -15 0
-16 5 0
-16 -6 0
-5 6 16 0
18 -2 0
18 -4 0
2 4 -18 0
-19 -17 0
-19 -18 0
17 18 19 0
16 19 -20 0
-16 -19 -20 0
16 -19 20 0
-16 19 20 0
-21 15 0
-21 -20 0
-15 20 21 0
-23 -22 0
-23 1 0
22 -1 23 0
24 19 0
24 -23 0
-19 23 -24 0
25 21 0
25 -24 0
-21 24 -25 0
26 -13 0
26 25 0
13 -25 -26 0
-14 17 23 1 -25 -5 0
-6 4 20 -8 0
13 -18 9 12 15 -5 0
-14 -10 5 12 -16 0
-12 -19 -4 0
-1 9 10 -19 -22 20 0
26 0
